6 40 4 10
14 18 8 10 8 4 20 13 20 4 13 20 3 18 13 16 12 19 16 13 15 16 4 14 9 5 15 11 10 15 19 20 16 17 18 3 18 7 19 5 
3.51 14.08 1.72 13.96 10.1 2.66 10.93 5.74 12.63 0.91 6.69 2.55 7.82 9.62 12.83 14.76 4 10.02 14.78 13.55 8.19 7.48 10.38 12.41 5.82 0.56 8.66 5.49 13.46 10.78 9.81 2.5 10.73 0.58 3.46 14.08 8 2.66 1.06 3.07 
7.74 9.15 4.33 1.89 4.52 7.78 6.41 5.57 9.83 2 1.74 2.14 14.81 10.22 4.01 4.26 9.7 1.81 15.65 2.46 2.2 10.79 11.35 13.99 4.95 6.48 12.85 7.28 8.45 5.31 8.58 8.63 6.33 8.33 2.62 4.34 15.18 7.37 12.96 5.17 
13.2 2.56 9.64 4.63 10.27 4.08 2.06 9.21 15.87 5.86 0.02 9.99 5.22 13.97 15.34 5.3 12.32 12.29 12.71 3.46 7.97 9.68 4.92 10.67 6.77 15.93 15.33 12.6 6.65 10.52 1.31 8.58 8.09 15.76 10.44 8.48 1.56 1.23 10 4.39 
2.41 11.41 7.72 5.73 9.86 11.88 12.88 3.92 6.43 1.93 12.87 5.11 9.33 13.39 0.14 11.64 1.75 0.49 3.84 10.27 12.35 11.07 11.55 12.06 15.65 14.26 8.55 11.19 15.23 3.05 1.46 9.22 0.72 12.97 8.6 1.08 14.63 1.19 3.45 14.28 
8 8 8 8 8 8 8 8 8 8 8 8 8 8 8 8 8 8 8 8 8 8 8 8 8 8 8 8 8 8 8 8 8 8 8 8 8 8 8 8 
8.76 4.93 13.08 5.81 3.73 5.57 3.52 15.14 3.45 7.8 5.15 3.06 10.66 2.38 10.08 14 7.84 7.43 13.18 0.45 11.02 6.6 12.3 8.89 15.91 6.21 4.48 4.21 8.28 7.61 5.17 1.42 6.71 2.97 5.56 0.04 14.12 6.32 1.05 8.6 
1 1 1 1 1 1 1 1 1 1 1 1 1 1 1 1 1 1 1 1 1 1 1 1 1 1 1 1 1 1 1 1 1 1 1 1 1 1 1 1 
1 1 1 1 1 1 1 1 1 1 1 1 1 1 1 1 1 1 1 1 1 1 1 1 1 1 1 1 1 1 1 1 1 1 1 1 1 1 1 1 
1 1 1 1 1 1 1 1 1 1 1 1 1 1 1 1 1 1 1 1 1 1 1 1 1 1 1 1 1 1 1 1 1 1 1 1 1 1 1 1 
1 1 1 1 1 1 1 1 1 1 1 1 1 1 1 1 1 1 1 1 1 1 1 1 1 1 1 1 1 1 1 1 1 1 1 1 1 1 1 1 
1 1 1 1 1 1 1 1 1 1 1 1 1 1 1 1 1 1 1 1 1 1 1 1 1 1 1 1 1 1 1 1 1 1 1 1 1 1 1 1 
1 1 1 1 1 1 1 1 1 1 1 1 1 1 1 1 1 1 1 1 1 1 1 1 1 1 1 1 1 1 1 1 1 1 1 1 1 1 1 1 
0.01 0.01 0.01 0.01 0.01 0.01 0.01 0.01 0.01 0.01 0.01 0.01 0.01 0.01 0.01 0.01 0.01 0.01 0.01 0.01 0.01 0.01 0.01 0.01 0.01 0.01 0.01 0.01 0.01 0.01 0.01 0.01 0.01 0.01 0.01 0.01 0.01 0.01 0.01 0.01 
0.02 0.02 0.02 0.02 0.02 0.02 0.02 0.02 0.02 0.02 0.02 0.02 0.02 0.02 0.02 0.02 0.02 0.02 0.02 0.02 0.02 0.02 0.02 0.02 0.02 0.02 0.02 0.02 0.02 0.02 0.02 0.02 0.02 0.02 0.02 0.02 0.02 0.02 0.02 0.02 
0.03 0.03 0.03 0.03 0.03 0.03 0.03 0.03 0.03 0.03 0.03 0.03 0.03 0.03 0.03 0.03 0.03 0.03 0.03 0.03 0.03 0.03 0.03 0.03 0.03 0.03 0.03 0.03 0.03 0.03 0.03 0.03 0.03 0.03 0.03 0.03 0.03 0.03 0.03 0.03 
0.04 0.04 0.04 0.04 0.04 0.04 0.04 0.04 0.04 0.04 0.04 0.04 0.04 0.04 0.04 0.04 0.04 0.04 0.04 0.04 0.04 0.04 0.04 0.04 0.04 0.04 0.04 0.04 0.04 0.04 0.04 0.04 0.04 0.04 0.04 0.04 0.04 0.04 0.04 0.04 
0.05 0.05 0.05 0.05 0.05 0.05 0.05 0.05 0.05 0.05 0.05 0.05 0.05 0.05 0.05 0.05 0.05 0.05 0.05 0.05 0.05 0.05 0.05 0.05 0.05 0.05 0.05 0.05 0.05 0.05 0.05 0.05 0.05 0.05 0.05 0.05 0.05 0.05 0.05 0.05 
1 1 1 1 1 1 1 1 1 1 1 1 1 1 1 1 1 1 1 1 1 1 1 1 1 1 1 1 1 1 1 1 1 1 1 1 1 1 1 1 
